Optimal - objective value -586.00000000
      0 x_0                      1                       0
      1 x_1                      0                       0
      2 x_2                      1                    -121
      3 x_3                      0                       0
      4 x_4                      0                       0
      5 x_5                      1                     -13
      6 x_6                      0                       0
      7 x_7                      0                       0
      8 x_8                      1                     -55
      9 x_9                      0                       0
     10 x_10                     0                       0
     11 x_11                     1                      -2
     12 x_12                     0                       0
     13 x_13                     0                       0
     14 x_14                     1                     -77
     15 x_15                     0                       0
